language ESSENCE' 1.0

letting jobs = 102
letting horizon = 779
letting resourcesRenew = 2
letting resourcesNonrenew = 2
letting resourceLimits = [52, 50, 387, 381]
letting successors = [[2, 3, 4, 5, 6, 7, 8, 9, 10, 11, 14, 18, 19, 20, 23, 24, 26], [40, 38, 33, 31, 29, 25, 21, 13], [70, 56, 52, 42, 41, 40, 38, 34, 33, 25, 22, 21], [70, 52, 49, 44, 34, 33, 32, 22, 16], [41, 38, 21, 17, 15], [56, 54, 52, 45, 42, 41, 38, 34, 33, 29, 21], [56, 54, 44, 42, 41, 40, 36, 30, 22, 21], [70, 56, 54, 52, 49, 47, 45, 42, 41, 40, 38, 37, 36, 35, 34, 31, 27], [52, 44, 39, 36, 28, 13], [46, 39, 35, 12], [70, 56, 54, 49, 48, 46, 45, 42, 40, 39, 37, 33, 32, 27], [70, 58, 56, 54, 49, 42, 41, 33, 22], [70, 56, 54, 49, 42, 41, 35, 22], [70, 58, 56, 42, 40, 39, 34, 22], [70, 56, 54, 52, 42, 35, 22], [56, 54, 48, 47, 45, 42, 38, 37, 28, 27], [58, 56, 54, 49, 42, 36, 22], [70, 56, 54, 45, 41, 38, 36, 28, 27], [62, 56, 55, 52, 50, 49, 47, 43, 42, 34, 28], [70, 56, 47, 46, 45, 37, 35, 27], [49, 48, 47, 46, 39, 28, 27], [66, 48, 47, 45, 37, 27], [101, 70, 66, 62, 58, 57, 56, 55, 50, 45, 43, 40], [72, 70, 68, 64, 59, 58, 57, 54, 49, 48, 43, 40], [101, 86, 76, 73, 66, 60, 58, 57, 54, 53, 51, 45], [101, 86, 67, 66, 65, 57, 56, 54, 47, 45], [101, 68, 67, 62, 61, 60, 57, 55, 53, 51, 50, 43], [101, 72, 71, 63, 61, 60, 59, 57, 35], [101, 86, 70, 68, 67, 66, 61, 60, 53, 36], [101, 86, 85, 72, 71, 70, 67, 65, 62, 60, 59, 58, 57, 47], [101, 85, 82, 72, 68, 66, 51, 50, 48, 44], [87, 86, 72, 68, 67, 66, 64, 61, 57, 53, 41], [101, 87, 86, 72, 68, 66, 65, 62, 36], [84, 76, 75, 73, 72, 66, 64, 63, 59, 51, 48], [100, 86, 84, 79, 76, 75, 73, 68, 66, 58, 53], [83, 81, 79, 71, 59, 43], [99, 86, 84, 73, 67, 63, 59, 53], [100, 99, 96, 86, 81, 79, 76, 75, 74, 72, 71, 65, 63, 61], [100, 97, 96, 86, 85, 83, 82, 81, 80, 79, 76, 75, 74, 72, 69, 65], [99, 87, 86, 82, 79, 78, 75, 73, 69, 53], [99, 93, 84, 83, 80, 75, 74, 65, 63, 62, 59], [86, 84, 76, 75, 69, 67, 53], [99, 98, 97, 96, 84, 80, 78, 76, 75, 73, 69, 63], [99, 96, 93, 86, 83, 80, 79, 74, 65, 57], [100, 99, 87, 85, 83, 82, 80, 79, 72, 71, 68, 59], [99, 97, 92, 84, 83, 82, 80, 79, 77, 74, 72, 71, 69, 68], [92, 84, 83, 82, 81, 80, 79, 76, 73, 69, 64], [99, 97, 92, 86, 83, 80, 79, 78, 74, 71, 69, 65], [100, 79, 78, 76, 75, 74, 71, 69, 63], [98, 87, 80, 79, 78, 77, 75, 73, 64], [100, 97, 96, 95, 93, 92, 83, 81, 80, 65], [99, 98, 97, 96, 93, 85, 80, 74, 72, 69], [97, 96, 93, 92, 83, 81, 80, 74, 65], [95, 94, 93, 81, 80, 78, 74, 63], [97, 96, 87, 84, 81, 79, 78, 69], [99, 93, 80, 79, 71, 59], [98, 84, 81, 78, 77, 75, 69], [99, 98, 95, 94, 93, 92, 82, 74], [96, 95, 92, 91, 90, 78, 77], [98, 96, 89, 87, 81, 79, 77], [98, 93, 89, 77, 69], [97, 92, 91, 90, 89, 79], [89, 85, 82, 77], [97, 96, 94, 91, 90, 89], [98, 94, 90, 89, 77], [93, 92, 80, 77], [97, 79, 78, 74], [94, 93, 90, 89, 88], [95, 94, 91, 88], [97, 74], [91, 89, 88], [95, 78], [74], [89, 88], [92, 89], [93, 90], [88], [89], [88], [91], [88], [90], [88], [90], [92], [88], [93], [102], [102], [102], [102], [102], [102], [102], [102], [102], [102], [102], [102], [102], [102], []]
letting durations = [[0], [1, 2, 7], [1, 4, 7], [1, 4, 9], [4, 8, 10], [2, 4, 5], [1, 4, 9], [6, 7, 8], [2, 7, 9], [2, 4, 9], [1, 4, 10], [3, 5, 9], [6, 7, 9], [1, 5, 9], [5, 6, 8], [1, 7, 10], [3, 6, 8], [2, 4, 6], [2, 7, 10], [1, 6, 10], [2, 3, 7], [2, 7, 8], [2, 5, 5], [4, 6, 6], [5, 5, 6], [2, 3, 6], [1, 3, 10], [5, 9, 10], [1, 7, 9], [1, 1, 5], [4, 5, 6], [1, 5, 10], [5, 9, 10], [5, 6, 6], [2, 8, 8], [1, 5, 9], [3, 8, 8], [7, 8, 10], [2, 3, 4], [1, 5, 5], [2, 5, 6], [1, 4, 7], [4, 6, 8], [1, 5, 9], [5, 6, 7], [2, 3, 9], [3, 5, 6], [1, 2, 3], [1, 2, 6], [1, 3, 8], [2, 6, 7], [2, 2, 10], [2, 4, 7], [3, 4, 9], [3, 7, 8], [1, 2, 9], [1, 8, 9], [3, 7, 9], [1, 8, 9], [4, 4, 7], [8, 8, 9], [2, 3, 5], [2, 3, 4], [9, 10, 10], [2, 3, 6], [2, 5, 8], [3, 6, 7], [6, 7, 10], [2, 8, 10], [1, 6, 9], [4, 5, 7], [3, 9, 10], [1, 3, 7], [3, 4, 6], [5, 6, 7], [6, 7, 7], [1, 3, 8], [1, 5, 5], [2, 3, 5], [2, 5, 5], [1, 9, 10], [2, 6, 8], [9, 9, 10], [2, 6, 10], [1, 1, 3], [4, 5, 7], [3, 5, 10], [1, 7, 8], [2, 5, 9], [3, 8, 10], [5, 6, 9], [3, 4, 9], [1, 6, 7], [2, 6, 7], [3, 4, 8], [1, 2, 4], [3, 3, 8], [4, 5, 6], [2, 6, 10], [5, 8, 10], [1, 5, 8], [0]]
letting resourceUsage = [[[0, 0, 0, 0]], [[2, 4, 5, 0], [2, 2, 5, 0], [2, 2, 0, 2]], [[5, 5, 8, 0], [5, 5, 0, 2], [5, 5, 7, 0]], [[4, 4, 3, 0], [3, 3, 0, 8], [3, 1, 2, 0]], [[1, 3, 8, 0], [1, 3, 7, 0], [1, 1, 7, 0]], [[2, 4, 0, 8], [2, 4, 8, 0], [2, 4, 0, 7]], [[4, 5, 8, 0], [3, 5, 0, 7], [3, 5, 0, 3]], [[4, 5, 0, 7], [4, 4, 0, 6], [4, 3, 0, 6]], [[2, 3, 7, 0], [2, 3, 0, 5], [2, 3, 4, 0]], [[4, 4, 9, 0], [4, 2, 0, 7], [4, 1, 0, 6]], [[4, 2, 8, 0], [4, 2, 7, 0], [4, 2, 0, 3]], [[5, 2, 9, 0], [4, 2, 0, 3], [2, 2, 0, 3]], [[3, 5, 7, 0], [3, 5, 0, 3], [1, 5, 0, 2]], [[4, 4, 2, 0], [3, 2, 0, 6], [1, 2, 2, 0]], [[4, 4, 9, 0], [2, 4, 0, 4], [2, 4, 0, 2]], [[3, 1, 6, 0], [1, 1, 6, 0], [1, 1, 0, 4]], [[3, 4, 0, 1], [2, 4, 4, 0], [2, 2, 0, 1]], [[3, 5, 8, 0], [3, 5, 0, 6], [2, 5, 2, 0]], [[4, 3, 0, 10], [2, 3, 0, 8], [1, 3, 1, 0]], [[5, 4, 6, 0], [4, 4, 5, 0], [3, 2, 3, 0]], [[3, 2, 0, 2], [1, 2, 3, 0], [1, 2, 2, 0]], [[5, 4, 6, 0], [2, 2, 6, 0], [2, 1, 6, 0]], [[3, 2, 0, 8], [2, 2, 0, 6], [2, 2, 3, 0]], [[3, 2, 6, 0], [2, 1, 0, 2], [2, 1, 6, 0]], [[3, 4, 0, 7], [2, 2, 0, 8], [2, 2, 0, 7]], [[4, 2, 0, 4], [4, 2, 0, 3], [4, 2, 0, 2]], [[4, 3, 0, 4], [3, 3, 2, 0], [3, 3, 1, 0]], [[4, 2, 0, 5], [3, 2, 9, 0], [2, 1, 8, 0]], [[5, 4, 10, 0], [5, 2, 0, 3], [5, 1, 9, 0]], [[4, 4, 4, 0], [3, 3, 0, 6], [3, 3, 0, 2]], [[2, 1, 10, 0], [2, 1, 9, 0], [1, 1, 9, 0]], [[4, 4, 4, 0], [4, 3, 0, 2], [4, 2, 0, 2]], [[4, 1, 9, 0], [4, 1, 8, 0], [4, 1, 7, 0]], [[4, 1, 0, 6], [2, 1, 0, 5], [1, 1, 1, 0]], [[5, 3, 9, 0], [3, 3, 0, 4], [3, 3, 9, 0]], [[5, 3, 9, 0], [4, 3, 0, 6], [4, 3, 0, 5]], [[2, 4, 0, 8], [2, 3, 2, 0], [1, 3, 0, 8]], [[3, 4, 7, 0], [2, 3, 0, 4], [1, 1, 7, 0]], [[2, 5, 0, 7], [2, 5, 0, 5], [2, 5, 0, 1]], [[5, 4, 7, 0], [3, 4, 0, 8], [2, 4, 5, 0]], [[2, 3, 3, 0], [2, 3, 0, 6], [2, 1, 0, 4]], [[5, 5, 0, 6], [5, 4, 4, 0], [5, 3, 0, 5]], [[3, 4, 0, 7], [3, 3, 0, 7], [2, 3, 3, 0]], [[4, 5, 6, 0], [2, 3, 0, 4], [1, 3, 0, 4]], [[5, 4, 0, 6], [5, 2, 0, 6], [5, 2, 0, 5]], [[4, 2, 0, 9], [3, 1, 6, 0], [2, 1, 5, 0]], [[5, 5, 0, 7], [5, 5, 3, 0], [5, 5, 2, 0]], [[4, 3, 0, 10], [4, 3, 4, 0], [4, 3, 3, 0]], [[1, 4, 0, 10], [1, 4, 0, 9], [1, 4, 0, 8]], [[2, 4, 0, 8], [1, 3, 4, 0], [1, 3, 3, 0]], [[3, 4, 7, 0], [3, 4, 5, 0], [1, 4, 0, 1]], [[1, 5, 6, 0], [1, 4, 0, 3], [1, 3, 0, 2]], [[4, 3, 0, 5], [4, 2, 5, 0], [4, 1, 5, 0]], [[4, 4, 0, 9], [3, 4, 0, 7], [3, 3, 2, 0]], [[4, 1, 0, 1], [3, 1, 2, 0], [3, 1, 1, 0]], [[5, 3, 0, 1], [4, 3, 0, 1], [4, 3, 1, 0]], [[2, 1, 0, 9], [1, 1, 0, 4], [1, 1, 1, 0]], [[4, 5, 0, 10], [4, 4, 0, 8], [3, 4, 0, 4]], [[4, 3, 0, 4], [3, 3, 0, 2], [1, 3, 3, 0]], [[2, 3, 4, 0], [2, 3, 0, 5], [2, 1, 0, 4]], [[5, 4, 0, 4], [4, 2, 6, 0], [4, 1, 6, 0]], [[5, 3, 8, 0], [3, 2, 6, 0], [2, 1, 0, 6]], [[4, 3, 0, 4], [3, 3, 0, 4], [2, 2, 0, 4]], [[2, 4, 0, 6], [2, 4, 4, 0], [2, 4, 0, 3]], [[3, 2, 4, 0], [2, 2, 3, 0], [2, 1, 2, 0]], [[4, 4, 0, 9], [3, 3, 0, 7], [2, 2, 3, 0]], [[5, 4, 10, 0], [3, 3, 0, 7], [2, 3, 9, 0]], [[5, 4, 7, 0], [4, 4, 5, 0], [4, 4, 4, 0]], [[4, 1, 2, 0], [2, 1, 0, 9], [1, 1, 0, 7]], [[4, 3, 5, 0], [2, 3, 5, 0], [2, 2, 0, 3]], [[4, 3, 0, 6], [4, 2, 0, 5], [4, 2, 0, 4]], [[4, 3, 6, 0], [4, 3, 4, 0], [3, 2, 0, 3]], [[3, 3, 0, 4], [3, 2, 6, 0], [3, 2, 0, 3]], [[2, 3, 0, 8], [1, 3, 0, 8], [1, 3, 0, 7]], [[3, 4, 10, 0], [3, 4, 9, 0], [3, 2, 0, 5]], [[4, 1, 3, 0], [2, 1, 1, 0], [2, 1, 0, 3]], [[3, 5, 7, 0], [3, 5, 0, 3], [2, 5, 0, 1]], [[4, 3, 2, 0], [3, 3, 2, 0], [3, 2, 0, 5]], [[3, 5, 9, 0], [3, 4, 9, 0], [2, 4, 9, 0]], [[3, 5, 0, 8], [2, 3, 0, 7], [2, 2, 8, 0]], [[3, 3, 4, 0], [3, 3, 3, 0], [2, 2, 0, 3]], [[2, 5, 4, 0], [2, 4, 0, 4], [2, 2, 0, 3]], [[3, 3, 8, 0], [2, 2, 0, 6], [2, 1, 6, 0]], [[1, 4, 0, 3], [1, 3, 4, 0], [1, 3, 0, 2]], [[4, 4, 9, 0], [3, 4, 0, 4], [3, 4, 5, 0]], [[2, 4, 0, 4], [1, 4, 8, 0], [1, 4, 0, 2]], [[4, 4, 7, 0], [2, 4, 0, 3], [1, 3, 0, 2]], [[4, 1, 6, 0], [3, 1, 4, 0], [2, 1, 2, 0]], [[4, 3, 0, 9], [3, 2, 5, 0], [3, 1, 4, 0]], [[2, 1, 0, 7], [1, 1, 5, 0], [1, 1, 3, 0]], [[3, 4, 0, 2], [2, 3, 0, 2], [2, 2, 0, 2]], [[5, 1, 9, 0], [4, 1, 0, 6], [4, 1, 3, 0]], [[2, 2, 0, 9], [2, 2, 0, 7], [2, 2, 5, 0]], [[1, 3, 5, 0], [1, 2, 3, 0], [1, 2, 2, 0]], [[4, 4, 0, 5], [2, 4, 0, 5], [2, 4, 3, 0]], [[4, 4, 0, 8], [4, 4, 6, 0], [4, 4, 5, 0]], [[4, 3, 6, 0], [4, 2, 0, 6], [4, 2, 0, 5]], [[2, 4, 0, 7], [2, 2, 0, 6], [1, 2, 0, 6]], [[2, 1, 7, 0], [1, 1, 0, 8], [1, 1, 0, 7]], [[4, 3, 0, 10], [2, 3, 0, 8], [1, 2, 4, 0]], [[3, 4, 10, 0], [2, 3, 8, 0], [2, 1, 8, 0]], [[0, 0, 0, 0]]]
